unsat
(:added-eqs                       2125626
 :arith-eq-adapter                930
 :arith-bound-propagations-lp     600615
 :arith-branch                    771
 :arith-conflicts                 86218
 :arith-cube-calls                373
 :arith-diseq                     1195178
 :arith-fixed-eqs                 707199
 :arith-gcd-calls                 8827
 :arith-gcd-conflict              292
 :arith-gomory-cuts               592
 :arith-grobner-calls             9659
 :arith-grobner-conflicts         5791
 :arith-hnf-calls                 8
 :arith-horner-calls              2103
 :arith-horner-conflicts          250
 :arith-horner-cross-nested-forms 178005
 :arith-lower                     1287778
 :arith-make-feasible             682730
 :arith-max-columns               591
 :arith-max-rows                  348
 :arith-nla-add-bounds            1899
 :arith-nla-lemmas                6961
 :arith-nla-propagate-bounds      27261
 :arith-nla-propagate-eq          406756
 :arith-nra-calls                 4422
 :arith-offset-eqs                332772
 :arith-patches                   8535
 :arith-patches-success           7076
 :arith-upper                     1946053
 :binary-propagations             6806040
 :card2bv-rewrites                1
 :cnf-encoding-aux-vars           4
 :conflicts                       98321
 :decisions                       1538296
 :del-clause                      97960
 :elim-unconstrained              8
 :final-checks                    24721
 :max-memory                      187.24
 :memory                          57.47
 :minimized-lits                  398698
 :mk-bool-var                     17169
 :mk-clause                       174635
 :mk-clause-binary                2705
 :nlsat-conflicts                 252037
 :nlsat-decisions                 4687
 :nlsat-irrational-assignments    25
 :nlsat-propagations              4312535
 :nlsat-stages                    1552877
 :num-allocs                      898389368549.00
 :num-checks                      2
 :propagations                    14081312
 :restarts                        373
 :rlimit-count                    124605755
 :sat-backjumps                   501
 :sat-conflicts                   501
 :sat-decisions                   2536
 :sat-del-clause                  39613
 :sat-elim-bool-vars-res          7435
 :sat-elim-literals               801
 :sat-minimized-lits              1611
 :sat-mk-clause-2ary              23331
 :sat-mk-clause-3ary              9774
 :sat-mk-clause-nary              63386
 :sat-mk-var                      15492
 :sat-probing-assigned            34
 :sat-propagations-2ary           202503
 :sat-propagations-nary           157891
 :sat-restarts                    40
 :sat-scc-elim-binary             46
 :sat-scc-elim-vars               20
 :sat-subs-resolution             678
 :sat-subs-resolution-dyn         102
 :sat-subsumed                    8178
 :sat-units                       47
 :solve-eqs-elim-vars             10
 :solve-eqs-steps                 154
 :time                            82.26
 :total-time                      82.26)
